<?xml version = "1.0" encoding="UTF-8" standalone="yes"?>
<CPLEXSolution version="1.2">
 <header
   problemName="cluster_small_cut_n8"
   objectiveValue="75.552795031055894"
   solutionTypeValue="1"
   solutionTypeString="basic"
   solutionStatusValue="1"
   solutionStatusString="optimal"
   solutionMethodString="primal"
   primalFeasible="1"
   dualFeasible="1"
   simplexIterations="0"
   writeLevel="1"/>
 <quality
   epRHS="9.9999999999999995e-07"
   epOpt="9.9999999999999995e-07"
   maxPrimalInfeas="0"
   maxDualInfeas="0"
   maxPrimalResidual="9.2370555648813024e-14"
   maxDualResidual="0"
   maxX="2.9627329192546483"
   maxPi="1.304347826086957"
   maxSlack="930.40993788819867"
   maxRedCost="147.04347826086951"
   kappa="837.65032774189706"/>
 <linearConstraints>
  <constraint name="c0" index="0" status="BS" slack="0.77018633540372861" dual="-0"/>
  <constraint name="c1" index="1" status="BS" slack="427.3975155279503" dual="-0"/>
  <constraint name="c2" index="2" status="BS" slack="819.27329192546574" dual="-0"/>
  <constraint name="c3" index="3" status="BS" slack="323.49689440993791" dual="-0"/>
  <constraint name="c4" index="4" status="BS" slack="930.40993788819867" dual="-0"/>
  <constraint name="c5" index="5" status="LL" slack="0" dual="-0"/>
  <constraint name="c6" index="6" status="BS" slack="74.503105590062091" dual="-0"/>
  <constraint name="c7" index="7" status="BS" slack="388.18012422360249" dual="-0"/>
  <constraint name="c8" index="8" status="BS" slack="119.50310559006209" dual="-0"/>
  <constraint name="c9" index="9" status="BS" slack="587.37888198757764" dual="-0"/>
  <constraint name="c10" index="10" status="BS" slack="680.18012422360243" dual="-0"/>
  <constraint name="c11" index="11" status="BS" slack="553.75155279503099" dual="-0"/>
  <constraint name="c12" index="12" status="BS" slack="705.39130434782601" dual="-0"/>
  <constraint name="c13" index="13" status="BS" slack="324.92546583850935" dual="-0"/>
  <constraint name="c14" index="14" status="BS" slack="675.01242236024848" dual="-0"/>
  <constraint name="cut_1" index="15" status="LL" slack="0" dual="1.3012422360248441"/>
  <constraint name="cut_2" index="16" status="BS" slack="1.105590062111844" dual="-0"/>
  <constraint name="cut_3" index="17" status="BS" slack="1.459627329192557" dual="-0"/>
  <constraint name="cut_4" index="18" status="BS" slack="1.236024844720518" dual="-0"/>
  <constraint name="cut_5" index="19" status="BS" slack="0.32298136645968434" dual="-0"/>
  <constraint name="cut_6" index="20" status="BS" slack="2.2049689440993632" dual="-0"/>
  <constraint name="cut_7" index="21" status="LL" slack="0" dual="1.304347826086957"/>
  <constraint name="cut_8" index="22" status="BS" slack="0.5527950310559131" dual="-0"/>
 </linearConstraints>
 <variables>
  <variable name="x0" index="0" status="LL" value="0" reducedCost="-84.999999999999972"/>
  <variable name="x1" index="1" status="LL" value="0" reducedCost="-45.838509316770178"/>
  <variable name="x2" index="2" status="LL" value="0" reducedCost="-127.33229813664593"/>
  <variable name="x3" index="3" status="BS" value="0.75776397515527938" reducedCost="0"/>
  <variable name="x4" index="4" status="LL" value="0" reducedCost="-118.81366459627327"/>
  <variable name="x5" index="5" status="LL" value="0" reducedCost="-15.006211180124218"/>
  <variable name="x6" index="6" status="LL" value="0" reducedCost="-113.86024844720492"/>
  <variable name="x7" index="7" status="LL" value="0" reducedCost="-147.04347826086951"/>
  <variable name="x8" index="8" status="BS" value="0.77018633540372694" reducedCost="0"/>
  <variable name="x9" index="9" status="LL" value="0" reducedCost="-20.972049689441008"/>
  <variable name="x10" index="10" status="LL" value="0" reducedCost="-111.64596273291923"/>
  <variable name="x11" index="11" status="LL" value="0" reducedCost="-111.3478260869565"/>
  <variable name="s0" index="12" status="LL" value="0" reducedCost="0"/>
  <variable name="s1" index="13" status="LL" value="0" reducedCost="0"/>
  <variable name="s2" index="14" status="LL" value="0" reducedCost="0"/>
  <variable name="s3" index="15" status="LL" value="0" reducedCost="0"/>
  <variable name="s4" index="16" status="LL" value="0" reducedCost="0"/>
  <variable name="s5" index="17" status="BS" value="2.9627329192546483" reducedCost="0"/>
  <variable name="s6" index="18" status="LL" value="0" reducedCost="0"/>
  <variable name="s7" index="19" status="LL" value="0" reducedCost="0"/>
  <variable name="s8" index="20" status="LL" value="0" reducedCost="0"/>
  <variable name="s9" index="21" status="LL" value="0" reducedCost="0"/>
  <variable name="s10" index="22" status="LL" value="0" reducedCost="0"/>
  <variable name="s11" index="23" status="LL" value="0" reducedCost="0"/>
  <variable name="s12" index="24" status="LL" value="0" reducedCost="0"/>
  <variable name="s13" index="25" status="LL" value="0" reducedCost="0"/>
  <variable name="s14" index="26" status="LL" value="0" reducedCost="0"/>
 </variables>
 <objectiveValues>
  <objective index="0" name="" value="75.552795031055894"/>
 </objectiveValues>
</CPLEXSolution>
